(declare-sort $$unsorted 0)
(declare-fun tptp.op ($$unsorted $$unsorted) $$unsorted)
(assert (forall ((X0 $$unsorted) (X1 $$unsorted) (X2 $$unsorted)) (= (tptp.op X0 X1) (tptp.op X1 (tptp.op (tptp.op X2 X0) X1)))))
(assert (not (forall ((X0 $$unsorted) (X1 $$unsorted) (X2 $$unsorted)) (let ((_let_1 (tptp.op X0 X1))) (= _let_1 (tptp.op (tptp.op X2 X1) _let_1))))))
(set-info :filename Equation3566_implies_Equation3803)
(check-sat-assuming ( true ))
